RT is False
Default write of storage_offers_DA.csv just to have a file (but constraint should be inactive)
Reading model...
...model read.
creating competitive generators file...
...competitive generators recorded.
Loading data...
.. day-ahead data with real-time VRE data read.
Compiling instance...
...instance created.
Creating Offer Mitigation (model will solve as dispatch if TRUE)...
...storage offer mitigation file created
Converting model to MPEC...
...converted
NOTE: initial MIP solve with only storage competitive to get feasible solution
Solving...

Welcome to IBM(R) ILOG(R) CPLEX(R) Interactive Optimizer 12.9.0.0
  with Simplex, Mixed Integer & Barrier Optimizers
5725-A06 5725-A29 5724-Y48 5724-Y49 5724-Y54 5724-Y55 5655-Y21
Copyright IBM Corp. 1988, 2019.  All Rights Reserved.

Type 'help' for a list of available commands.
Type 'help' followed by a command name for more
information on commands.

CPLEX> Logfile 'cplex.log' closed.
Logfile 'C:\Users\llavin\Desktop\test826\logs\tmpvt03wo4v.cplex.log' open.
CPLEX> New value for parallel optimization mode: -1
CPLEX> New value for emphasis for MIP optimization: 1
CPLEX> New value for mixed integer optimality gap tolerance: 0.01
CPLEX> New value for integrality tolerance: 1e-12
CPLEX> New value for deterministic time limit in ticks: 75000
CPLEX> Problem 'C:\Users\llavin\Desktop\test826\logs\tmpcoe7lqpc.pyomo.lp' read.
Read time = 0.24 sec. (13.92 ticks)
CPLEX> Problem name         : C:\Users\llavin\Desktop\test826\logs\tmpcoe7lqpc.pyomo.lp
Objective sense      : Maximize
Variables            :   53809  [Nneg: 1,  Box: 22004,  Free: 4464,
                                 Binary: 27340]
Objective nonzeros   :    9089
Linear constraints   :  123253  [Less: 41346,  Greater: 59096,  Equal: 22811]
  Nonzeros           :  293156
  RHS nonzeros       :   67502

Variables            : Min LB: -5000.000        Max UB: 1000000.       
Objective nonzeros   : Min   : 0.008333333      Max   : 2125.000       
Linear constraints   :
  Nonzeros           : Min   : 0.008333333      Max   : 1000000.       
  RHS nonzeros       : Min   : 0.008333333      Max   : 1000000.       
CPLEX> CPXPARAM_Parallel                                -1
CPXPARAM_Emphasis_MIP                            1
CPXPARAM_DetTimeLimit                            75000
CPXPARAM_MIP_Tolerances_MIPGap                   0.01
CPXPARAM_MIP_Tolerances_Integrality              9.9999999999999998e-13
Tried aggregator 3 times.
MIP Presolve eliminated 88637 rows and 18995 columns.
MIP Presolve added 3359 rows and 0 columns.
MIP Presolve modified 24893 coefficients.
Aggregator did 12949 substitutions.
Reduced MIP has 25026 rows, 21317 columns, and 72586 nonzeros.
Reduced MIP has 8433 binaries, 0 generals, 0 SOSs, and 0 indicators.
Presolve time = 0.31 sec. (169.91 ticks)
Probing fixed 365 vars, tightened 3986 bounds.
Probing time = 0.06 sec. (19.27 ticks)
Tried aggregator 2 times.
MIP Presolve eliminated 826 rows and 734 columns.
MIP Presolve modified 3075 coefficients.
Aggregator did 32 substitutions.
Reduced MIP has 24168 rows, 20551 columns, and 70095 nonzeros.
Reduced MIP has 8067 binaries, 0 generals, 0 SOSs, and 0 indicators.
Presolve time = 0.11 sec. (90.11 ticks)
Probing fixed 0 vars, tightened 228 bounds.
Probing time = 0.14 sec. (23.67 ticks)
Clique table members: 45028.
MIP emphasis: integer feasibility.
MIP search method: dynamic search.
Parallel mode: opportunistic, using up to 32 threads.
Root relaxation solution time = 0.42 sec. (547.49 ticks)

        Nodes                                         Cuts/
   Node  Left     Objective  IInf  Best Integer    Best Bound    ItCnt     Gap

      0     0      402.1965    55                    402.1965     4097         
      0     0      402.1965     3                 Flowcuts: 3     4099         
      0     5    infeasible                       Impl Bds: 2     4113         
Elapsed time = 3.25 sec. (1417.15 ticks, tree = 0.02 MB, solutions = 1)
*     3+   11                          297.9480      313.0110             5.06%
    750   107      299.3113     1      297.9480      310.8333     4931    4.32%
   1562   525      300.8379     1      297.9480      310.8333     6937    4.32%
   2517   775      307.6718     1      297.9480      310.8333     8562    4.32%
   3596  1364      305.0029     1      297.9480      310.8333    12136    4.32%
   4670  1592      303.0958     1      297.9480      310.8333    13561    4.32%
   5651  2362      299.3113     1      297.9480      310.8333    17677    4.32%
   6638  2308      305.2133     1      297.9480      310.8333    17455    4.32%
   7678  2429      300.8379     1      297.9480      310.8333    18031    4.32%
  10026  3520      302.3905     1      297.9480      310.8333    24252    4.32%
Elapsed time = 16.92 sec. (4290.96 ticks, tree = 24.17 MB, solutions = 1)
  10099  4843        cutoff            297.9480      310.8333    35751    4.32%

Cover cuts applied:  1
Implied bound cuts applied:  10
Flow cuts applied:  1
Mixed integer rounding cuts applied:  6
Gomory fractional cuts applied:  3

Root node processing (before b&c):
  Real time             =    2.11 sec. (1412.15 ticks)
Parallel b&c, 32 threads:
  Real time             =   18.42 sec. (4728.04 ticks)
  Sync time (average)   =    1.60 sec.
  Wait time (average)   =    0.13 sec.
                          ------------
Total (root+branch&cut) =   20.53 sec. (6140.19 ticks)

Solution pool: 1 solution saved.

MIP - Integer optimal, tolerance (0.01/1e-06):  Objective =  2.9794804228e+02
Current MIP best bound =  3.0032122600e+02 (gap = 2.37318, 0.80%)
Solution time =   20.55 sec.  Iterations = 39250  Nodes = 11144 (60)
Deterministic time = 6140.35 ticks  (298.84 ticks/sec)

CPLEX> Incumbent solution written to file 'C:\Users\llavin\Desktop\test826\logs\tmpl8qx_nol.cplex.sol'.
CPLEX> NOTE: no warmstart specified for MIP iteration, default behavior is true
NOTE: resolving with all competitive generators using storage-only solution to warmstart
Solving...

Welcome to IBM(R) ILOG(R) CPLEX(R) Interactive Optimizer 12.9.0.0
  with Simplex, Mixed Integer & Barrier Optimizers
5725-A06 5725-A29 5724-Y48 5724-Y49 5724-Y54 5724-Y55 5655-Y21
Copyright IBM Corp. 1988, 2019.  All Rights Reserved.

Type 'help' for a list of available commands.
Type 'help' followed by a command name for more
information on commands.

CPLEX> Logfile 'cplex.log' closed.
Logfile 'C:\Users\llavin\Desktop\test826\logs\tmp37u9ftis.cplex.log' open.
CPLEX> New value for parallel optimization mode: -1
CPLEX> New value for emphasis for MIP optimization: 1
CPLEX> New value for mixed integer optimality gap tolerance: 0.01
CPLEX> New value for integrality tolerance: 1e-12
CPLEX> New value for deterministic time limit in ticks: 75000
CPLEX> Problem 'C:\Users\llavin\Desktop\test826\logs\tmp_f1jif29.pyomo.lp' read.
Read time = 0.23 sec. (13.94 ticks)
CPLEX> MIP start file 'C:\Users\llavin\Desktop\test826\logs\tmpv4u6daj3.cplex.mst' read.
CPLEX> Problem name         : C:\Users\llavin\Desktop\test826\logs\tmp_f1jif29.pyomo.lp
Objective sense      : Maximize
Variables            :   54529  [Nneg: 1,  Box: 22724,  Free: 4464,
                                 Binary: 27340]
Objective nonzeros   :    9809
Linear constraints   :  123253  [Less: 41346,  Greater: 59096,  Equal: 22811]
  Nonzeros           :  293156
  RHS nonzeros       :   67502

Variables            : Min LB: -5000.000        Max UB: 1000000.       
Objective nonzeros   : Min   : 0.008333333      Max   : 2500.000       
Linear constraints   :
  Nonzeros           : Min   : 0.008333333      Max   : 1000000.       
  RHS nonzeros       : Min   : 0.008333333      Max   : 1000000.       
CPLEX> CPXPARAM_Parallel                                -1
CPXPARAM_Emphasis_MIP                            1
CPXPARAM_DetTimeLimit                            75000
CPXPARAM_MIP_Tolerances_MIPGap                   0.01
CPXPARAM_MIP_Tolerances_Integrality              9.9999999999999998e-13
Warning:  No solution found from 1 MIP starts.
Retaining values of one MIP start for possible repair.
Tried aggregator 3 times.
MIP Presolve eliminated 88637 rows and 19715 columns.
MIP Presolve added 3359 rows and 0 columns.
MIP Presolve modified 24893 coefficients.
Aggregator did 12949 substitutions.
Reduced MIP has 25026 rows, 21317 columns, and 72586 nonzeros.
Reduced MIP has 8433 binaries, 0 generals, 0 SOSs, and 0 indicators.
Presolve time = 0.30 sec. (170.27 ticks)
Probing fixed 365 vars, tightened 3986 bounds.
Probing time = 0.06 sec. (19.27 ticks)
Tried aggregator 2 times.
MIP Presolve eliminated 826 rows and 734 columns.
MIP Presolve modified 3075 coefficients.
Aggregator did 32 substitutions.
Reduced MIP has 24168 rows, 20551 columns, and 70095 nonzeros.
Reduced MIP has 8067 binaries, 0 generals, 0 SOSs, and 0 indicators.
Presolve time = 0.11 sec. (90.11 ticks)
Probing fixed 0 vars, tightened 228 bounds.
Probing time = 0.14 sec. (23.67 ticks)
Clique table members: 45028.
MIP emphasis: integer feasibility.
MIP search method: dynamic search.
Parallel mode: opportunistic, using up to 32 threads.
Root relaxation solution time = 0.42 sec. (554.03 ticks)

        Nodes                                         Cuts/
   Node  Left     Objective  IInf  Best Integer    Best Bound    ItCnt     Gap

      0     0      -23.4052    42                    -23.4052     4065         
      0     0      -23.4052     1                 Flowcuts: 1     4066         
Repair heuristic found nothing.
      0     2      -23.4052     1                    -23.4052     4066         
Elapsed time = 3.06 sec. (1553.10 ticks, tree = 0.02 MB, solutions = 1)
*     1     1      integral     0     -104.3954      -23.4052     4077   77.58%

Flow cuts applied:  1

Root node processing (before b&c):
  Real time             =    2.39 sec. (1511.68 ticks)
Parallel b&c, 32 threads:
  Real time             =    0.81 sec. (80.87 ticks)
  Sync time (average)   =    0.15 sec.
  Wait time (average)   =    0.00 sec.
                          ------------
Total (root+branch&cut) =    3.20 sec. (1592.56 ticks)

Solution pool: 1 solution saved.

MIP - Integer optimal solution:  Objective = -1.0439540949e+02
Solution time =    3.22 sec.  Iterations = 4088  Nodes = 5
Deterministic time = 1592.71 ticks  (494.79 ticks/sec)

CPLEX> Incumbent solution written to file 'C:\Users\llavin\Desktop\test826\logs\tmpljgdinfy.cplex.sol'.
CPLEX> Exporting results... 
